WARNING: for repeatability, setting FPU to use double precision
============================[ Problem Statistics ]=============================
|                                                                             |
|  Number of variables:           100                                         |
|  Number of clauses:             449                                         |
|  Parse time:                   0.00 s                                       |
|  Eliminated clauses:           0.00 Mb                                      |
|  Simplification time:          0.00 s                                       |
|                                                                             |
============================[ Search Statistics ]==============================
| Conflicts |          ORIGINAL         |          LEARNT          | Progress |
|           |    Vars  Clauses Literals |    Limit  Clauses Lit/Cl |          |
===============================================================================
|       100 |      99      442     1325 |      162      100      7 |  0.010 % |
|       250 |      98      431     1292 |      178       55      6 |  1.010 % |
===============================================================================
restarts              : 3
conflicts             : 353            (94033 /sec)
decisions             : 440            (0.00 % random) (117208 /sec)
propagations          : 8351           (2224560 /sec)
conflict literals     : 2182           (23.52 % deleted)
Memory used           : 13.00 MB
CPU time              : 0.003754 s

SATISFIABLE
